r = [
0,9,3,10,12,10,20,12,6,11,19,0
];
p = [
0,29,29,24,25,25,8,25,18,5,22,0
];
e = [
0,13,19,3,3,16,16,4,16,4,14,0
];
d = [
0,201,185,200,205,192,216,211,187,190,217,219
];
d_bar = [
0,204,188,202,208,195,217,214,189,191,219,219
];
w = [
0,4.333333333,6.333333333,1.5,1,5.333333333,16,1.333333333,8,4,7,0
];
